c CNF file corresponding to a (partial) station packing problem.
p cnf 1421 229
1405 1406 1407 1408 1409 1410 1411 1412 1413 1414 1415 1416 1417 1418 1419 1420 1421 0
-1405 -1406 0
-1405 -1407 0
-1405 -1408 0
-1405 -1409 0
-1405 -1410 0
-1405 -1411 0
-1405 -1412 0
-1405 -1413 0
-1405 -1414 0
-1405 -1415 0
-1405 -1416 0
-1405 -1417 0
-1405 -1418 0
-1405 -1419 0
-1405 -1420 0
-1405 -1421 0
-1406 -1407 0
-1406 -1408 0
-1406 -1409 0
-1406 -1410 0
-1406 -1411 0
-1406 -1412 0
-1406 -1413 0
-1406 -1414 0
-1406 -1415 0
-1406 -1416 0
-1406 -1417 0
-1406 -1418 0
-1406 -1419 0
-1406 -1420 0
-1406 -1421 0
-1407 -1408 0
-1407 -1409 0
-1407 -1410 0
-1407 -1411 0
-1407 -1412 0
-1407 -1413 0
-1407 -1414 0
-1407 -1415 0
-1407 -1416 0
-1407 -1417 0
-1407 -1418 0
-1407 -1419 0
-1407 -1420 0
-1407 -1421 0
-1408 -1409 0
-1408 -1410 0
-1408 -1411 0
-1408 -1412 0
-1408 -1413 0
-1408 -1414 0
-1408 -1415 0
-1408 -1416 0
-1408 -1417 0
-1408 -1418 0
-1408 -1419 0
-1408 -1420 0
-1408 -1421 0
-1409 -1410 0
-1409 -1411 0
-1409 -1412 0
-1409 -1413 0
-1409 -1414 0
-1409 -1415 0
-1409 -1416 0
-1409 -1417 0
-1409 -1418 0
-1409 -1419 0
-1409 -1420 0
-1409 -1421 0
-1410 -1411 0
-1410 -1412 0
-1410 -1413 0
-1410 -1414 0
-1410 -1415 0
-1410 -1416 0
-1410 -1417 0
-1410 -1418 0
-1410 -1419 0
-1410 -1420 0
-1410 -1421 0
-1411 -1412 0
-1411 -1413 0
-1411 -1414 0
-1411 -1415 0
-1411 -1416 0
-1411 -1417 0
-1411 -1418 0
-1411 -1419 0
-1411 -1420 0
-1411 -1421 0
-1412 -1413 0
-1412 -1414 0
-1412 -1415 0
-1412 -1416 0
-1412 -1417 0
-1412 -1418 0
-1412 -1419 0
-1412 -1420 0
-1412 -1421 0
-1413 -1414 0
-1413 -1415 0
-1413 -1416 0
-1413 -1417 0
-1413 -1418 0
-1413 -1419 0
-1413 -1420 0
-1413 -1421 0
-1414 -1415 0
-1414 -1416 0
-1414 -1417 0
-1414 -1418 0
-1414 -1419 0
-1414 -1420 0
-1414 -1421 0
-1415 -1416 0
-1415 -1417 0
-1415 -1418 0
-1415 -1419 0
-1415 -1420 0
-1415 -1421 0
-1416 -1417 0
-1416 -1418 0
-1416 -1419 0
-1416 -1420 0
-1416 -1421 0
-1417 -1418 0
-1417 -1419 0
-1417 -1420 0
-1417 -1421 0
-1418 -1419 0
-1418 -1420 0
-1418 -1421 0
-1419 -1420 0
-1419 -1421 0
-1420 -1421 0
1 2 3 4 5 6 7 8 9 10 11 12 13 14 0
-1 -2 0
-1 -3 0
-1 -4 0
-1 -5 0
-1 -6 0
-1 -7 0
-1 -8 0
-1 -9 0
-1 -10 0
-1 -11 0
-1 -12 0
-1 -13 0
-1 -14 0
-2 -3 0
-2 -4 0
-2 -5 0
-2 -6 0
-2 -7 0
-2 -8 0
-2 -9 0
-2 -10 0
-2 -11 0
-2 -12 0
-2 -13 0
-2 -14 0
-3 -4 0
-3 -5 0
-3 -6 0
-3 -7 0
-3 -8 0
-3 -9 0
-3 -10 0
-3 -11 0
-3 -12 0
-3 -13 0
-3 -14 0
-4 -5 0
-4 -6 0
-4 -7 0
-4 -8 0
-4 -9 0
-4 -10 0
-4 -11 0
-4 -12 0
-4 -13 0
-4 -14 0
-5 -6 0
-5 -7 0
-5 -8 0
-5 -9 0
-5 -10 0
-5 -11 0
-5 -12 0
-5 -13 0
-5 -14 0
-6 -7 0
-6 -8 0
-6 -9 0
-6 -10 0
-6 -11 0
-6 -12 0
-6 -13 0
-6 -14 0
-7 -8 0
-7 -9 0
-7 -10 0
-7 -11 0
-7 -12 0
-7 -13 0
-7 -14 0
-8 -9 0
-8 -10 0
-8 -11 0
-8 -12 0
-8 -13 0
-8 -14 0
-9 -10 0
-9 -11 0
-9 -12 0
-9 -13 0
-9 -14 0
-10 -11 0
-10 -12 0
-10 -13 0
-10 -14 0
-11 -12 0
-11 -13 0
-11 -14 0
-12 -13 0
-12 -14 0
-13 -14 0
